12 965
525 7 504 7 362 7 209 9 25 11 818 15 619 21
525 7 504 7 362 7 209 9 25 11 818 15 619 21
525 7 504 7 362 7 209 9 25 11 818 15 619 21
525 7 477 7 391 7 243 9 78 11 919 15
519 7 499 7 409 7 250 9 138 18
525 7 477 7 390 7 241 9 77 11 1 15 805 19 645 23
535 8 495 8 401 9 236 10 74 14 908 18
525 7 482 7 358 7 165 12
535 8 492 8 398 9 231 10 69 14 902 35
535 8 492 8 398 9 231 10 69 14 899 50
525 7 476 7 357 7 158 9 8 11 846 15 690 20 570 28
525 7 477 7 391 7 244 9 79 11 961 15 779 22
